9
0 14 14 14 14 14 14 14 14
14 0 14 14 14 14 14 14 14
14 14 0 14 14 14 14 14 14
14 14 14 0 14 14 14 14 14
14 14 14 14 0 14 14 14 14
14 14 14 14 14 0 14 14 14
14 14 14 14 14 14 0 14 14
14 14 14 14 14 14 14 0 14
14 14 14 14 14 14 14 14 0
126
0 1 2 3 4 5 6 7 8 0 
